GLPSOL--GLPK LP/MIP Solver 5.0
Parameter(s) specified in the command line:
 --lp ../modeles/3_379.lp --log 3_379.log
Reading problem data from '../modeles/3_379.lp'...
1150 rows, 2280 columns, 7974 non-zeros
1137 integer variables, all of which are binary
3439 lines were read
GLPK Integer Optimizer 5.0
1150 rows, 2280 columns, 7974 non-zeros
1137 integer variables, all of which are binary
Preprocessing...
1122 constraint coefficient(s) were reduced
1150 rows, 2277 columns, 7971 non-zeros
1137 integer variables, all of which are binary
Scaling...
 A: min|aij| =  2.785e-05  max|aij| =  4.000e+00  ratio =  1.436e+05
GM: min|aij| =  5.137e-02  max|aij| =  1.947e+01  ratio =  3.790e+02
EQ: min|aij| =  2.639e-03  max|aij| =  1.000e+00  ratio =  3.790e+02
2N: min|aij| =  1.782e-03  max|aij| =  1.768e+00  ratio =  9.923e+02
Constructing initial basis...
Size of triangular part is 1150
Solving LP relaxation...
GLPK Simplex Optimizer 5.0
1150 rows, 2277 columns, 7971 non-zeros
      0: obj =   6.000000000e+00 inf =   1.450e+01 (7)
     62: obj =   4.999617098e-01 inf =   0.000e+00 (0)
*   215: obj =  -1.732004078e+00 inf =   9.030e-16 (0)
OPTIMAL LP SOLUTION FOUND
Integer optimization begins...
Long-step dual simplex will be used
+   215: mip =     not found yet >=              -inf        (1; 0)
+   653: >>>>>  -1.732004078e+00 >=  -1.732004078e+00 < 0.1% (433; 0)
+   653: mip =  -1.732004078e+00 >=     tree is empty   0.0% (0; 865)
INTEGER OPTIMAL SOLUTION FOUND
Time used:   0.6 secs
Memory used: 3.4 Mb (3542503 bytes)
